certificates/rado_a13_c190_N44.cnf
c Rad2 upper bound instance: x1 + 13*x2 - x3 = 190, interval [1,44]
p cnf 44 294
1 6 15 0
-1 -6 -15 0
1 16 19 0
-1 -16 -19 0
1 17 32 0
-1 -17 -32 0
2 7 15 0
-2 -7 -15 0
2 16 20 0
-2 -16 -20 0
2 17 33 0
-2 -17 -33 0
3 8 15 0
-3 -8 -15 0
3 16 21 0
-3 -16 -21 0
3 17 34 0
-3 -17 -34 0
4 9 15 0
-4 -9 -15 0
4 16 22 0
-4 -16 -22 0
4 17 35 0
-4 -17 -35 0
5 10 15 0
-5 -10 -15 0
5 16 23 0
-5 -16 -23 0
5 17 36 0
-5 -17 -36 0
6 11 15 0
-6 -11 -15 0
6 16 24 0
-6 -16 -24 0
6 17 37 0
-6 -17 -37 0
7 12 15 0
-7 -12 -15 0
7 16 25 0
-7 -16 -25 0
7 17 38 0
-7 -17 -38 0
8 13 15 0
-8 -13 -15 0
8 16 26 0
-8 -16 -26 0
8 17 39 0
-8 -17 -39 0
1 9 14 0
-1 -9 -14 0
9 14 15 0
-9 -14 -15 0
9 16 27 0
-9 -16 -27 0
9 17 40 0
-9 -17 -40 0
2 10 14 0
-2 -10 -14 0
10 15 0
-10 -15 0
10 16 28 0
-10 -16 -28 0
10 17 41 0
-10 -17 -41 0
3 11 14 0
-3 -11 -14 0
11 15 16 0
-11 -15 -16 0
11 16 29 0
-11 -16 -29 0
11 17 42 0
-11 -17 -42 0
4 12 14 0
-4 -12 -14 0
12 15 17 0
-12 -15 -17 0
12 16 30 0
-12 -16 -30 0
12 17 43 0
-12 -17 -43 0
5 13 14 0
-5 -13 -14 0
13 15 18 0
-13 -15 -18 0
13 16 31 0
-13 -16 -31 0
13 17 44 0
-13 -17 -44 0
6 14 0
-6 -14 0
14 15 19 0
-14 -15 -19 0
14 16 32 0
-14 -16 -32 0
7 14 15 0
-7 -14 -15 0
15 20 0
-15 -20 0
15 16 33 0
-15 -16 -33 0
8 14 16 0
-8 -14 -16 0
15 16 21 0
-15 -16 -21 0
16 34 0
-16 -34 0
9 14 17 0
-9 -14 -17 0
15 17 22 0
-15 -17 -22 0
16 17 35 0
-16 -17 -35 0
10 14 18 0
-10 -14 -18 0
15 18 23 0
-15 -18 -23 0
16 18 36 0
-16 -18 -36 0
11 14 19 0
-11 -14 -19 0
15 19 24 0
-15 -19 -24 0
16 19 37 0
-16 -19 -37 0
12 14 20 0
-12 -14 -20 0
15 20 25 0
-15 -20 -25 0
16 20 38 0
-16 -20 -38 0
13 14 21 0
-13 -14 -21 0
15 21 26 0
-15 -21 -26 0
16 21 39 0
-16 -21 -39 0
1 13 22 0
-1 -13 -22 0
14 22 0
-14 -22 0
15 22 27 0
-15 -22 -27 0
16 22 40 0
-16 -22 -40 0
2 13 23 0
-2 -13 -23 0
14 15 23 0
-14 -15 -23 0
15 23 28 0
-15 -23 -28 0
16 23 41 0
-16 -23 -41 0
3 13 24 0
-3 -13 -24 0
14 16 24 0
-14 -16 -24 0
15 24 29 0
-15 -24 -29 0
16 24 42 0
-16 -24 -42 0
4 13 25 0
-4 -13 -25 0
14 17 25 0
-14 -17 -25 0
15 25 30 0
-15 -25 -30 0
16 25 43 0
-16 -25 -43 0
5 13 26 0
-5 -13 -26 0
14 18 26 0
-14 -18 -26 0
15 26 31 0
-15 -26 -31 0
16 26 44 0
-16 -26 -44 0
6 13 27 0
-6 -13 -27 0
14 19 27 0
-14 -19 -27 0
15 27 32 0
-15 -27 -32 0
7 13 28 0
-7 -13 -28 0
14 20 28 0
-14 -20 -28 0
15 28 33 0
-15 -28 -33 0
8 13 29 0
-8 -13 -29 0
14 21 29 0
-14 -21 -29 0
15 29 34 0
-15 -29 -34 0
9 13 30 0
-9 -13 -30 0
14 22 30 0
-14 -22 -30 0
15 30 35 0
-15 -30 -35 0
10 13 31 0
-10 -13 -31 0
14 23 31 0
-14 -23 -31 0
15 31 36 0
-15 -31 -36 0
11 13 32 0
-11 -13 -32 0
14 24 32 0
-14 -24 -32 0
15 32 37 0
-15 -32 -37 0
12 13 33 0
-12 -13 -33 0
14 25 33 0
-14 -25 -33 0
15 33 38 0
-15 -33 -38 0
13 34 0
-13 -34 0
14 26 34 0
-14 -26 -34 0
15 34 39 0
-15 -34 -39 0
1 12 35 0
-1 -12 -35 0
13 14 35 0
-13 -14 -35 0
14 27 35 0
-14 -27 -35 0
15 35 40 0
-15 -35 -40 0
2 12 36 0
-2 -12 -36 0
13 15 36 0
-13 -15 -36 0
14 28 36 0
-14 -28 -36 0
15 36 41 0
-15 -36 -41 0
3 12 37 0
-3 -12 -37 0
13 16 37 0
-13 -16 -37 0
14 29 37 0
-14 -29 -37 0
15 37 42 0
-15 -37 -42 0
4 12 38 0
-4 -12 -38 0
13 17 38 0
-13 -17 -38 0
14 30 38 0
-14 -30 -38 0
15 38 43 0
-15 -38 -43 0
5 12 39 0
-5 -12 -39 0
13 18 39 0
-13 -18 -39 0
14 31 39 0
-14 -31 -39 0
15 39 44 0
-15 -39 -44 0
6 12 40 0
-6 -12 -40 0
13 19 40 0
-13 -19 -40 0
14 32 40 0
-14 -32 -40 0
7 12 41 0
-7 -12 -41 0
13 20 41 0
-13 -20 -41 0
14 33 41 0
-14 -33 -41 0
8 12 42 0
-8 -12 -42 0
13 21 42 0
-13 -21 -42 0
14 34 42 0
-14 -34 -42 0
9 12 43 0
-9 -12 -43 0
13 22 43 0
-13 -22 -43 0
14 35 43 0
-14 -35 -43 0
10 12 44 0
-10 -12 -44 0
13 23 44 0
-13 -23 -44 0
14 36 44 0
-14 -36 -44 0
