certificates/rado_a13_c190_N44.drat
15 -41 -44 0
-15 -43 -44 0
15 -44 0
d 15 -41 -44 0
41 -44 0
-17 -44 0
-15 -44 0
d -39 -15 -44 0
-44 0
17 0
15 -13 0
-15 0
10 0
20 0
39 0
-13 0
-41 0
-8 0
0
